33D32945 STP File, STP Format Version 1.0

SECTION Comment
Name    "i080-145"
Creator "Cees Duin"
Remark  "Incidence graph"
END

SECTION Graph
Nodes 80
Edges 632
E 1 3 300
E 1 4 306
E 1 9 195
E 1 10 205
E 1 15 210
E 1 16 195
E 1 17 203
E 1 41 199
E 1 43 196
E 1 45 202
E 1 48 208
E 1 52 199
E 1 68 209
E 1 70 200
E 1 74 195
E 1 76 200
E 1 78 200
E 2 16 200
E 2 17 208
E 2 30 199
E 2 44 193
E 2 45 195
E 2 47 200
E 2 56 208
E 2 61 194
E 2 72 190
E 2 73 202
E 2 77 209
E 3 17 200
E 3 28 196
E 3 36 206
E 3 38 198
E 3 42 200
E 3 48 201
E 3 51 193
E 3 54 195
E 3 60 193
E 3 61 207
E 3 80 199
E 4 6 297
E 4 16 201
E 4 21 186
E 4 24 204
E 4 26 204
E 4 29 198
E 4 49 201
E 4 58 198
E 4 72 196
E 4 74 200
E 4 76 199
E 5 17 204
E 5 20 204
E 5 32 207
E 5 33 197
E 5 36 203
E 5 37 196
E 5 43 197
E 5 48 209
E 5 50 193
E 5 61 203
E 5 65 202
E 5 68 192
E 5 75 194
E 6 8 298
E 6 10 202
E 6 22 203
E 6 25 201
E 6 26 202
E 6 28 198
E 6 30 200
E 6 33 201
E 6 34 196
E 6 35 198
E 6 39 209
E 6 43 203
E 6 47 200
E 6 63 204
E 6 66 201
E 6 74 192
E 6 75 202
E 6 79 197
E 7 23 197
E 7 24 202
E 7 28 195
E 7 41 203
E 7 56 208
E 7 58 200
E 7 59 203
E 7 60 195
E 7 64 202
E 7 66 200
E 7 67 206
E 7 69 201
E 7 73 196
E 7 78 208
E 8 10 199
E 8 18 207
E 8 19 204
E 8 21 206
E 8 24 198
E 8 32 201
E 8 37 192
E 8 39 207
E 8 44 197
E 8 48 200
E 8 53 200
E 8 55 199
E 8 58 208
E 8 60 199
E 8 65 202
E 8 66 211
E 8 69 194
E 8 78 197
E 9 21 101
E 9 23 94
E 9 30 106
E 9 31 107
E 9 38 106
E 9 39 93
E 9 40 112
E 9 46 98
E 9 55 101
E 9 63 95
E 9 66 96
E 9 69 107
E 9 72 102
E 9 74 97
E 9 79 96
E 10 13 98
E 10 17 100
E 10 19 97
E 10 20 103
E 10 25 99
E 10 26 103
E 10 28 104
E 10 30 105
E 10 41 92
E 10 44 95
E 10 51 98
E 10 52 95
E 10 54 100
E 10 60 103
E 10 63 96
E 10 70 102
E 10 76 102
E 10 77 94
E 10 79 93
E 11 20 101
E 11 27 101
E 11 29 108
E 11 33 104
E 11 36 100
E 11 46 100
E 11 48 103
E 11 54 98
E 11 58 101
E 11 63 99
E 12 14 99
E 12 17 106
E 12 19 113
E 12 27 94
E 12 29 99
E 12 35 99
E 12 37 93
E 12 41 92
E 12 50 100
E 12 58 97
E 12 64 86
E 12 65 94
E 12 67 103
E 12 73 96
E 12 74 102
E 12 75 90
E 12 76 106
E 13 19 102
E 13 20 86
E 13 21 99
E 13 27 93
E 13 29 106
E 13 36 99
E 13 50 91
E 13 58 96
E 13 62 97
E 13 63 104
E 13 70 102
E 13 71 101
E 13 75 97
E 14 26 103
E 14 32 99
E 14 33 87
E 14 36 106
E 14 42 107
E 14 45 107
E 14 55 96
E 14 60 85
E 14 64 96
E 14 65 98
E 14 66 100
E 14 72 96
E 14 75 100
E 15 17 101
E 15 20 105
E 15 24 100
E 15 35 97
E 15 50 103
E 15 55 109
E 15 57 100
E 15 64 96
E 15 70 98
E 15 73 96
E 16 19 88
E 16 20 104
E 16 23 95
E 16 24 105
E 16 26 102
E 16 31 113
E 16 32 112
E 16 36 100
E 16 43 87
E 16 44 99
E 16 50 105
E 16 59 98
E 16 60 92
E 16 64 95
E 16 73 98
E 16 75 98
E 16 80 91
E 17 47 103
E 17 55 100
E 17 57 99
E 17 61 107
E 17 70 96
E 17 75 109
E 17 77 99
E 18 20 96
E 18 24 97
E 18 27 95
E 18 30 102
E 18 31 98
E 18 34 101
E 18 38 94
E 18 50 105
E 18 55 98
E 18 59 87
E 18 65 104
E 18 66 99
E 19 22 90
E 19 23 92
E 19 36 93
E 19 44 108
E 19 59 101
E 19 60 102
E 19 66 103
E 19 72 98
E 19 75 107
E 19 80 103
E 20 25 100
E 20 28 96
E 20 37 88
E 20 40 101
E 20 44 98
E 20 51 100
E 20 59 95
E 20 66 99
E 20 68 93
E 20 71 105
E 21 23 98
E 21 27 104
E 21 46 94
E 21 51 96
E 21 52 105
E 21 57 100
E 21 69 97
E 21 72 101
E 22 31 105
E 22 32 100
E 22 44 89
E 22 47 94
E 22 53 110
E 22 56 96
E 22 67 105
E 22 74 107
E 22 75 93
E 22 76 99
E 23 27 91
E 23 32 101
E 23 35 95
E 23 36 97
E 23 41 97
E 23 42 99
E 23 45 103
E 23 48 110
E 23 57 95
E 23 59 103
E 23 68 101
E 23 70 92
E 23 71 99
E 23 72 94
E 23 76 103
E 23 79 101
E 24 42 92
E 24 58 100
E 24 68 101
E 24 77 99
E 25 29 96
E 25 31 94
E 25 33 102
E 25 42 90
E 25 45 93
E 25 52 105
E 25 57 92
E 25 62 85
E 25 63 106
E 25 65 105
E 25 72 100
E 25 80 94
E 26 39 108
E 26 42 96
E 26 44 103
E 26 48 94
E 26 53 98
E 26 58 101
E 26 62 98
E 26 67 103
E 26 69 99
E 26 71 88
E 26 74 101
E 26 77 95
E 26 78 91
E 26 80 94
E 27 28 102
E 27 41 104
E 27 42 93
E 27 47 104
E 27 48 104
E 27 52 98
E 27 55 102
E 27 57 104
E 27 66 103
E 27 73 94
E 28 31 100
E 28 36 98
E 28 37 95
E 28 53 96
E 28 60 105
E 28 62 101
E 28 66 98
E 28 68 98
E 28 69 92
E 28 72 102
E 29 34 92
E 29 38 90
E 29 42 106
E 29 47 92
E 29 48 99
E 29 56 105
E 29 62 99
E 29 73 99
E 29 79 105
E 29 80 105
E 30 33 103
E 30 40 105
E 30 41 95
E 30 48 89
E 30 50 99
E 30 52 106
E 30 62 94
E 30 66 94
E 30 67 101
E 30 72 107
E 31 37 101
E 31 52 98
E 31 59 98
E 31 61 101
E 31 66 93
E 31 70 95
E 31 73 104
E 31 76 112
E 32 33 101
E 32 37 101
E 32 38 94
E 32 39 98
E 32 47 105
E 32 59 95
E 32 62 104
E 32 64 101
E 32 65 104
E 32 71 104
E 32 74 98
E 32 75 99
E 32 80 98
E 33 45 105
E 33 60 93
E 33 61 102
E 33 65 99
E 33 67 99
E 33 76 97
E 34 47 103
E 34 48 108
E 34 53 100
E 34 56 109
E 34 59 90
E 34 64 97
E 34 65 101
E 35 36 93
E 35 37 113
E 35 53 105
E 35 71 101
E 35 73 100
E 35 74 100
E 35 78 91
E 36 39 92
E 36 40 111
E 36 42 101
E 36 43 101
E 36 48 110
E 36 51 88
E 36 53 96
E 36 55 98
E 36 56 102
E 36 57 97
E 36 58 102
E 36 61 85
E 36 63 104
E 36 66 92
E 36 70 96
E 36 73 108
E 36 75 103
E 36 77 95
E 37 39 99
E 37 47 102
E 37 60 104
E 37 62 107
E 37 67 96
E 37 73 107
E 37 79 106
E 38 43 101
E 38 52 99
E 38 62 96
E 38 66 93
E 38 68 109
E 38 70 105
E 38 73 100
E 38 74 99
E 38 78 99
E 39 45 99
E 39 54 102
E 39 64 101
E 39 69 93
E 39 70 102
E 39 78 97
E 40 42 99
E 40 44 101
E 40 47 96
E 40 48 105
E 40 49 102
E 40 52 93
E 40 57 103
E 40 72 101
E 40 73 101
E 41 54 107
E 41 67 96
E 41 68 96
E 41 71 102
E 41 72 103
E 41 75 100
E 41 76 98
E 41 79 115
E 41 80 101
E 42 48 92
E 42 51 99
E 42 53 98
E 42 55 99
E 42 60 105
E 42 65 101
E 42 67 94
E 42 70 105
E 42 71 94
E 42 77 101
E 43 58 97
E 43 60 95
E 43 63 102
E 43 73 94
E 44 51 95
E 44 55 97
E 44 57 97
E 44 58 100
E 44 68 107
E 44 71 94
E 44 75 94
E 44 76 101
E 45 47 101
E 45 49 83
E 45 50 105
E 45 53 94
E 45 54 109
E 45 58 88
E 45 59 103
E 45 62 101
E 45 70 99
E 45 73 98
E 45 74 97
E 45 78 91
E 46 52 117
E 46 56 96
E 46 57 93
E 46 65 101
E 46 67 104
E 46 68 113
E 46 72 105
E 46 75 99
E 46 76 100
E 47 51 102
E 47 55 97
E 47 56 98
E 47 60 92
E 47 68 98
E 47 72 97
E 47 75 101
E 47 78 107
E 48 49 94
E 48 58 101
E 48 59 95
E 49 50 91
E 49 52 105
E 49 55 92
E 49 57 94
E 49 61 91
E 49 62 103
E 49 67 108
E 49 76 106
E 49 79 97
E 49 80 101
E 50 56 103
E 50 57 98
E 50 67 103
E 50 68 100
E 50 70 93
E 50 73 97
E 50 79 95
E 51 54 100
E 51 55 102
E 51 65 100
E 51 66 96
E 51 67 102
E 51 73 98
E 51 74 108
E 51 76 107
E 52 57 99
E 52 66 92
E 53 56 97
E 53 57 107
E 53 59 93
E 53 61 105
E 53 64 99
E 53 65 95
E 53 67 114
E 53 71 95
E 53 76 99
E 53 77 95
E 54 67 100
E 54 75 106
E 54 79 102
E 55 56 94
E 55 61 102
E 55 63 102
E 55 73 108
E 56 74 103
E 56 76 96
E 56 79 108
E 57 58 103
E 57 60 106
E 57 68 109
E 57 69 102
E 57 72 96
E 57 79 93
E 58 63 88
E 58 75 93
E 58 76 94
E 59 67 101
E 59 73 97
E 59 78 100
E 60 61 95
E 60 66 106
E 60 76 102
E 61 62 95
E 61 68 96
E 61 70 108
E 61 71 106
E 61 72 103
E 61 74 105
E 61 75 93
E 61 77 98
E 61 78 99
E 62 69 104
E 62 71 93
E 62 72 98
E 62 74 98
E 62 78 101
E 64 66 99
E 64 75 95
E 64 79 101
E 65 69 95
E 65 70 93
E 65 77 87
E 66 68 103
E 66 69 94
E 66 71 102
E 66 72 103
E 66 75 95
E 67 71 100
E 67 72 106
E 68 70 97
E 68 78 106
E 69 70 106
E 69 74 103
E 69 77 104
E 69 79 103
E 69 80 102
E 70 72 93
E 70 75 97
E 70 76 102
E 70 79 96
E 71 72 99
E 71 76 100
E 71 79 92
E 72 74 86
E 73 78 99
E 74 75 100
E 75 77 107
E 75 80 106
E 76 77 103
END

SECTION Terminals
Terminals 8
T 1
T 2
T 3
T 4
T 5
T 6
T 7
T 8
END

EOF
